c --- [ banner ] -------------------------------------------------------------
c 
c CaDiCaL SAT Solver
c Copyright (c) 2016-2024
c A. Biere, M. Fleury, N. Froleyks, K. Fazekas, F. Pollitt, T. Faller
c JKU Linz, University of Freiburg, TU Wien
c 
c Version 2.1.3 f13d74439a5b5c963ac5b02d05ce93a8098018b8
c g++ (Gentoo 12.3.1_p20230526 p2) 12.3.1 20230526 -Wall -Wextra -O3 -DNDEBUG
c Thu Apr 10 08:26:21 EDT 2025 Linux narval2.narval.calcul.quebec 4.18.0-553.40.1.el8_10.x86_64 x86_64
c 
c --- [ parsing input ] ------------------------------------------------------
c 
c reading DIMACS file from 'cnfs//3color_gnm_5.cnf'
c opening file to read 'cnfs//3color_gnm_5.cnf'
c found 'p cnf 15 50' header
c parsed 50 clauses in 0.00 seconds process time
c 
c --- [ options ] ------------------------------------------------------------
c 
c all options are set to their default value
c 
c --- [ solving ] ------------------------------------------------------------
c 
c time measured in process time since initialization
c 
c  seconds  reductions  redundant irredundant
c         MB    restarts       trail    variables
c          level   conflicts       glue     remaining
c 
c *  0.00  4  0 0   0    0    0  0% 0   50  15 100%
c {  0.00  4  0 0   0    0    0  0% 0   50  15 100%
c i  0.00  4  0 0   0    2    1 100% 0   50  14 93%
c }  0.00  4  1 0   0    6    3 100% 1   50   0  0%
c 0  0.00  4  1 0   0    6    3 100% 1   50   0  0%
c 
c --- [ result ] -------------------------------------------------------------
c 
s UNSATISFIABLE
c 
c --- [ run-time profiling ] -------------------------------------------------
c 
c process time taken by individual solving procedures
c (percentage relative to process time for solving)
c 
c         0.00   77.05% parse
c         0.00   65.07% search
c         0.00   53.42% unstable
c         0.00    6.51% lucky
c         0.00    0.00% simplify
c   =================================
c         0.00   27.70% solve
c 
c last line shows process time for solving
c (percentage relative to total process time)
c 
c --- [ statistics ] ---------------------------------------------------------
c 
c chronological:                 1        16.67 %  of conflicts
c conflicts:                     6     20547.95    per second
c decisions:                     5     17123.29    per second
c fixed:                        15       100.00 %  of all variables
c learned:                       5        83.33 %  per conflict
c learned_lits:                  9       100.00 %  learned literals
c minimized:                     0         0.00 %  learned literals
c shrunken:                      1        11.11 %  learned literals
c minishrunken:                  0         0.00 %  learned literals
c otfs:                          0         0.00 %  of conflict
c propagations:                 64         0.22 M  per second
c 
c seconds are measured in process time for solving
c 
c --- [ resources ] ----------------------------------------------------------
c 
c total process time since initialization:         0.00    seconds
c total real time since initialization:            0.06    seconds
c maximum resident set size of process:            3.91    MB
c 
c --- [ shutting down ] ------------------------------------------------------
c 
c exit 20
